NAME: instance_1658
TYPE: TSP
DIMENSION: 20
EDGE_WEIGHT_TYPE: EUC_2D
NODE_COORD_SECTION
0 12.93 26.09
1 86.16 92.47
2 26.29 20.34
3 36.52 61.55
4 21.54 31.64
5 54.08 72.78
6 13.14 99.72
7 30.28 47.30
8 98.42 53.00
9 32.18 69.00
10 71.71 70.11
11 16.41 5.84
12 20.70 87.67
13 23.71 62.90
14 1.16 42.42
15 35.71 32.42
16 20.46 79.41
17 26.46 51.00
18 40.56 80.02
19 24.69 69.46
EOF
